\ Model _copy
\ LP format - for model browsing. Use MPS format to capture full model detail.
Maximize
 
Subject To
 a1: sel_2 + sel_3 >= 1
 a2: sel_4 >= 1
 a3: sel_5 + sel_6 >= 1
 b0: sel_0 + sel_1 - sel_2 - sel_3 - sel_4 - sel_5 - sel_6 >= 0
Bounds
Binaries
 sel_0 sel_1 sel_2 sel_3 sel_4 sel_5 sel_6
End
